proyfinal/src/viki/013/andrea/andrea-localstore/experimentInOfficeAgust.take6/worker_6/e523ceaa-e330-449d-b885-69f40aff456a.als.cnf.out
Reading from standard input... Use '--help' for help.
============================[ Problem Statistics ]=============================
|                                                                             |
|  Number of variables:         87638                                         |
|  Number of clauses:          161767                                         |
|  Parse time:                   0.03 s                                       |
|                                                                             |
============================[ Search Statistics ]==============================
| Conflicts |          ORIGINAL         |          LEARNT          | Progress |
|           |    Vars  Clauses Literals |    Limit  Clauses Lit/Cl |          |
===============================================================================
|       100 |   62733   106429   265960 |    39023      100     40 | 28.418 % |
|       250 |   62713   106345   265767 |    42926      249     57 | 28.441 % |
|       475 |   62713   106345   265767 |    47218      474    132 | 28.441 % |
|       812 |   62713   106345   265767 |    51940      811    118 | 28.441 % |
|      1318 |   62713   106345   265767 |    57134     1317     87 | 28.441 % |
|      2077 |   62713   106345   265767 |    62848     2076     71 | 28.441 % |
|      3216 |   62713   106345   265767 |    69133     3215     62 | 28.441 % |
|      4924 |   62712   106301   265677 |    76046     4921     72 | 28.442 % |
|      7486 |   62712   106301   265677 |    83651     7483    100 | 28.442 % |
|     11330 |   62712   106301   265677 |    92016    11327    117 | 28.442 % |
===============================================================================
restarts              : 63
conflicts             : 16673          (6802 /sec)
decisions             : 65898          (0.00 % random) (26886 /sec)
propagations          : 24236171       (9888137 /sec)
conflict literals     : 1700063        (44.13 % deleted)
Memory used           : 40.51 MB
CPU time              : 2.45104 s

INDETERMINATE
